sat
(:max-memory        18.75
 :memory            17.63
 :num-allocs        39027082
 :rlimit-count      513815
 :sls-constraints   3243
 :sls-ddfw-flips    322158.00
 :sls-ddfw-reinits  8
 :sls-ddfw-restarts 92
 :sls-ddfw-shifts   234018.00
 :sls.euf-conflict  3243
 :time              0.43
 :total-time        0.44)
